(set-info :smt-lib-version 2.6)
(set-logic QF_NIA)
(set-info :source |
Generated by: Cristina Borralleras, Daniel Larraz, Albert Oliveras, Enric Rodriguez-Carbonell, Albert Rubio
Generated on: 2017-04-27
Generator: VeryMax
Application: Termination proving
Target solver: barcelogic
|)
(set-info :license "https://creativecommons.org/licenses/by/4.0/")
(set-info :category "industrial")
(set-info :status sat)
(declare-fun Nl2main_i1 () Int)
(declare-fun Nl2main_range1 () Int)
(declare-fun lam0n0 () Int)
(declare-fun lam0n1 () Int)
(declare-fun lam0n2 () Int)
(declare-fun lam0n3 () Int)
(declare-fun Nl2CT1 () Int)
(declare-fun lam1n0 () Int)
(declare-fun lam1n1 () Int)
(declare-fun lam1n2 () Int)
(declare-fun lam1n3 () Int)
(declare-fun lam2n0 () Int)
(declare-fun lam2n1 () Int)
(declare-fun lam2n2 () Int)
(declare-fun lam2n3 () Int)
(declare-fun lam3n0 () Int)
(declare-fun lam3n1 () Int)
(declare-fun lam3n2 () Int)
(declare-fun lam3n3 () Int)
(declare-fun lam4n0 () Int)
(declare-fun lam4n1 () Int)
(declare-fun lam4n2 () Int)
(declare-fun lam4n3 () Int)
(declare-fun lam5n0 () Int)
(declare-fun lam5n1 () Int)
(declare-fun lam5n2 () Int)
(declare-fun lam5n3 () Int)
(declare-fun lam6n0 () Int)
(declare-fun lam6n1 () Int)
(declare-fun lam6n2 () Int)
(declare-fun lam6n3 () Int)
(declare-fun lam7n0 () Int)
(declare-fun lam7n1 () Int)
(declare-fun lam7n2 () Int)
(declare-fun lam7n3 () Int)
(declare-fun lam8n1 () Int)
(declare-fun lam8n0 () Int)
(declare-fun main_i () Int)
(declare-fun undef2 () Int)
(declare-fun main_range () Int)
(declare-fun FV_main_i_4 () Int)
(declare-fun FV_main_range_4 () Int)
(declare-fun lam9n0 () Int)
(declare-fun lam9n1 () Int)
(declare-fun lam9n2 () Int)
(declare-fun lam9n3 () Int)
(declare-fun lam10n0 () Int)
(declare-fun lam10n1 () Int)
(declare-fun lam10n2 () Int)
(declare-fun lam10n3 () Int)
(declare-fun lam10n4 () Int)
(declare-fun lam11n0 () Int)
(declare-fun lam11n1 () Int)
(declare-fun lam11n2 () Int)
(declare-fun lam11n3 () Int)
(declare-fun lam12n0 () Int)
(declare-fun lam12n1 () Int)
(declare-fun lam12n2 () Int)
(declare-fun lam12n3 () Int)
(declare-fun lam13n0 () Int)
(declare-fun lam13n1 () Int)
(declare-fun lam13n3 () Int)
(declare-fun lam13n2 () Int)
(declare-fun lam14n0 () Int)
(declare-fun lam14n1 () Int)
(declare-fun lam14n2 () Int)
(declare-fun lam14n3 () Int)
(declare-fun FV_main_i_5 () Int)
(declare-fun FV_main_range_5 () Int)
(assert ( and ( <= ( - 1 ) Nl2main_i1 ) ( <= Nl2main_i1 1 ) ( <= ( - 1 ) Nl2main_range1 ) ( <= Nl2main_range1 1 ) ))
(assert ( or ( and ( >= lam0n0 0 ) ( >= lam0n1 0 ) ( >= lam0n2 0 ) ( >= lam0n3 0 ) ( > ( + ( * ( - 4 ) lam0n2 ) ( * Nl2CT1 lam0n3 ) ( - 1 ) ) 0 ) ( = ( + ( * 1 lam0n0 ) ( * ( - 1 ) lam0n1 ) ( * ( - 1 ) lam0n2 ) ( * Nl2main_i1 lam0n3 ) ) 0 ) ( = ( + ( * ( - 1 ) lam0n0 ) ( * ( - 1 ) lam0n1 ) ( * 1 lam0n2 ) ( * Nl2main_range1 lam0n3 ) ) 0 ) ) ( and ( >= lam1n0 0 ) ( >= lam1n1 0 ) ( >= lam1n2 0 ) ( >= lam1n3 0 ) ( > ( + ( * ( - 4 ) lam1n2 ) ( * Nl2CT1 lam1n3 ) ( - 1 ( + Nl2CT1 ( * Nl2main_i1 0 ) ) ) ) 0 ) ( = ( + ( * 1 lam1n0 ) ( * ( - 1 ) lam1n1 ) ( * ( - 1 ) lam1n2 ) ( * Nl2main_i1 lam1n3 ) ( - ( + 0 ( * Nl2main_i1 ( - 1 ) ) ) ) ) 0 ) ( = ( + ( * ( - 1 ) lam1n0 ) ( * ( - 1 ) lam1n1 ) ( * 1 lam1n2 ) ( * Nl2main_range1 lam1n3 ) ( - ( + 0 Nl2main_range1 ) ) ) 0 ) ) ))
(assert ( or ( and ( >= lam2n0 0 ) ( >= lam2n1 0 ) ( >= lam2n2 0 ) ( >= lam2n3 0 ) ( > ( + ( * 5 lam2n1 ) ( * ( - 4 ) lam2n2 ) ( * Nl2CT1 lam2n3 ) ( - 1 ) ) 0 ) ( = ( + ( * ( - 1 ) lam2n0 ) ( * 1 lam2n1 ) ( * 1 lam2n2 ) ( * Nl2main_i1 lam2n3 ) ) 0 ) ( = ( + ( * ( - 1 ) lam2n0 ) ( * ( - 1 ) lam2n1 ) ( * 1 lam2n2 ) ( * Nl2main_range1 lam2n3 ) ) 0 ) ) ( and ( >= lam3n0 0 ) ( >= lam3n1 0 ) ( >= lam3n2 0 ) ( >= lam3n3 0 ) ( > ( + ( * 5 lam3n1 ) ( * ( - 4 ) lam3n2 ) ( * Nl2CT1 lam3n3 ) ( - 1 ( + Nl2CT1 ( * Nl2main_i1 0 ) ) ) ) 0 ) ( = ( + ( * ( - 1 ) lam3n0 ) ( * 1 lam3n1 ) ( * 1 lam3n2 ) ( * Nl2main_i1 lam3n3 ) ( - ( + 0 ( * Nl2main_i1 ( - 1 ) ) ) ) ) 0 ) ( = ( + ( * ( - 1 ) lam3n0 ) ( * ( - 1 ) lam3n1 ) ( * 1 lam3n2 ) ( * Nl2main_range1 lam3n3 ) ( - ( + 0 Nl2main_range1 ) ) ) 0 ) ) ))
(assert ( or ( and ( >= lam4n0 0 ) ( >= lam4n1 0 ) ( >= lam4n2 0 ) ( >= lam4n3 0 ) ( > ( + ( * 5 lam4n1 ) ( * 5 lam4n2 ) ( * Nl2CT1 lam4n3 ) ( - 1 ) ) 0 ) ( = ( + ( * 1 lam4n0 ) ( * 1 lam4n1 ) ( * ( - 1 ) lam4n2 ) ( * Nl2main_i1 lam4n3 ) ) 0 ) ( = ( + ( * ( - 1 ) lam4n1 ) ( * ( - 1 ) lam4n2 ) ( * Nl2main_range1 lam4n3 ) ) 0 ) ) ( and ( >= lam5n0 0 ) ( >= lam5n1 0 ) ( >= lam5n2 0 ) ( >= lam5n3 0 ) ( > ( + ( * 5 lam5n1 ) ( * 5 lam5n2 ) ( * Nl2CT1 lam5n3 ) ( - 1 ( + ( + Nl2CT1 ( * Nl2main_i1 ( - 1 ) ) ) ( * Nl2main_range1 1 ) ) ) ) 0 ) ( = ( + ( * 1 lam5n0 ) ( * 1 lam5n1 ) ( * ( - 1 ) lam5n2 ) ( * Nl2main_i1 lam5n3 ) ( - ( + 0 ( * Nl2main_i1 1 ) ) ) ) 0 ) ( = ( + ( * ( - 1 ) lam5n1 ) ( * ( - 1 ) lam5n2 ) ( * Nl2main_range1 lam5n3 ) ( - ( + 0 ( * Nl2main_range1 1 ) ) ) ) 0 ) ) ))
(assert ( or ( and ( >= lam6n0 0 ) ( >= lam6n1 0 ) ( >= lam6n2 0 ) ( >= lam6n3 0 ) ( > ( + ( * 5 lam6n0 ) ( * 5 lam6n1 ) ( * 2 lam6n2 ) ( * Nl2CT1 lam6n3 ) ( - 1 ) ) 0 ) ( = ( + ( * 1 lam6n0 ) ( * ( - 1 ) lam6n1 ) ( * ( - 1 ) lam6n2 ) ( * Nl2main_i1 lam6n3 ) ) 0 ) ( = ( + ( * ( - 1 ) lam6n0 ) ( * ( - 1 ) lam6n1 ) ( * Nl2main_range1 lam6n3 ) ) 0 ) ) ( and ( >= lam7n0 0 ) ( >= lam7n1 0 ) ( >= lam7n2 0 ) ( >= lam7n3 0 ) ( > ( + ( * 5 lam7n0 ) ( * 5 lam7n1 ) ( * 2 lam7n2 ) ( * Nl2CT1 lam7n3 ) ( - 1 ( + ( + Nl2CT1 ( * Nl2main_i1 ( - 1 ) ) ) ( * Nl2main_range1 1 ) ) ) ) 0 ) ( = ( + ( * 1 lam7n0 ) ( * ( - 1 ) lam7n1 ) ( * ( - 1 ) lam7n2 ) ( * Nl2main_i1 lam7n3 ) ( - ( + 0 ( * Nl2main_i1 1 ) ) ) ) 0 ) ( = ( + ( * ( - 1 ) lam7n0 ) ( * ( - 1 ) lam7n1 ) ( * Nl2main_range1 lam7n3 ) ( - ( + 0 ( * Nl2main_range1 1 ) ) ) ) 0 ) ) ))
(assert ( <= ( + Nl2CT1 ( * Nl2main_i1 FV_main_i_4 ) ( * Nl2main_range1 FV_main_range_4 ) ) 0 ))
(assert ( or ( and ( >= lam9n0 0 ) ( >= lam9n1 0 ) ( >= lam9n2 0 ) ( >= lam9n3 0 ) ( > ( + ( * 5 lam9n0 ) ( * 1 lam9n1 ) ( * 2 lam9n2 ) ( * Nl2CT1 lam9n3 ) ( - 1 ) ) 0 ) ( = ( + ( * ( - 1 ) lam9n0 ) ( * ( - 1 ) lam9n1 ) ( * ( - 1 ) lam9n2 ) ( * Nl2main_i1 lam9n3 ) ) 0 ) ( = ( + ( * ( - 1 ) lam9n0 ) ( * 1 lam9n1 ) ( * Nl2main_range1 lam9n3 ) ) 0 ) ) ( and ( >= lam10n0 0 ) ( >= lam10n1 0 ) ( >= lam10n2 0 ) ( >= lam10n3 0 ) ( >= lam10n4 0 ) ( > ( + ( * 1 lam10n1 ) ( * 1 lam10n2 ) ( * ( - 4 ) lam10n3 ) ( * Nl2CT1 lam10n4 ) ( - 1 ) ) 0 ) ( = ( + ( * ( - 1 ) lam10n0 ) ( * ( - 1 ) lam10n1 ) ( * ( - 1 ) lam10n2 ) ( * 1 lam10n3 ) ( * Nl2main_i1 lam10n4 ) ) 0 ) ( = ( + ( * ( - 1 ) lam10n0 ) ( * 1 lam10n2 ) ( * 1 lam10n3 ) ( * Nl2main_range1 lam10n4 ) ) 0 ) ) ( and ( >= lam11n0 0 ) ( >= lam11n1 0 ) ( >= lam11n2 0 ) ( >= lam11n3 0 ) ( > ( + ( * 1 lam11n0 ) ( * 1 lam11n1 ) ( * 1 lam11n2 ) ( * Nl2CT1 lam11n3 ) ( - 1 ) ) 0 ) ( = ( + ( * 1 lam11n0 ) ( * ( - 1 ) lam11n1 ) ( * ( - 1 ) lam11n2 ) ( * Nl2main_i1 lam11n3 ) ) 0 ) ( = ( + ( * 1 lam11n0 ) ( * 1 lam11n2 ) ( * Nl2main_range1 lam11n3 ) ) 0 ) ) ( and ( >= lam12n0 0 ) ( >= lam12n1 0 ) ( >= lam12n2 0 ) ( >= lam12n3 0 ) ( > ( + ( * 1 lam12n1 ) ( * 1 lam12n2 ) ( * Nl2CT1 lam12n3 ) ( - 1 ) ) 0 ) ( = ( + ( * 1 lam12n0 ) ( * 1 lam12n1 ) ( * ( - 1 ) lam12n2 ) ( * Nl2main_i1 lam12n3 ) ) 0 ) ( = ( + ( * 1 lam12n1 ) ( * 1 lam12n2 ) ( * Nl2main_range1 lam12n3 ) ) 0 ) ) ( and ( >= lam13n0 0 ) ( >= lam13n1 0 ) ( >= lam13n3 0 ) ( > ( + ( * 5 lam13n0 ) ( * 5 lam13n1 ) ( * ( - 1 ) lam13n2 ) ( * Nl2CT1 lam13n3 ) ( - 1 ) ) 0 ) ( = ( + ( * 1 lam13n0 ) ( * ( - 1 ) lam13n1 ) ( * 1 lam13n2 ) ( * Nl2main_i1 lam13n3 ) ) 0 ) ( = ( + ( * ( - 1 ) lam13n0 ) ( * ( - 1 ) lam13n1 ) ( * Nl2main_range1 lam13n3 ) ) 0 ) ) ( and ( >= lam14n0 0 ) ( >= lam14n1 0 ) ( >= lam14n2 0 ) ( >= lam14n3 0 ) ( > ( + ( * 1 lam14n2 ) ( * Nl2CT1 lam14n3 ) ( - 1 ) ) 0 ) ( = ( + ( * 1 lam14n0 ) ( * 1 lam14n1 ) ( * 1 lam14n2 ) ( * Nl2main_i1 lam14n3 ) ) 0 ) ( = ( + ( * ( - 1 ) lam14n1 ) ( * 1 lam14n2 ) ( * Nl2main_range1 lam14n3 ) ) 0 ) ) ))
(assert ( and ( <= ( + Nl2CT1 ( * Nl2main_i1 FV_main_i_5 ) ( * Nl2main_range1 FV_main_range_5 ) ) 0 ) ( or ( and ( <= ( + FV_main_i_5 ( * ( - 1 ) FV_main_range_5 ) ) 0 ) ( <= ( + ( * ( - 1 ) FV_main_i_5 ) ( * ( - 1 ) FV_main_range_5 ) ) 0 ) ( <= ( + ( - 4 ) ( * ( - 1 ) FV_main_i_5 ) FV_main_range_5 ) 0 ) ) ( and ( <= ( + ( * ( - 1 ) FV_main_i_5 ) ( * ( - 1 ) FV_main_range_5 ) ) 0 ) ( <= ( + 5 FV_main_i_5 ( * ( - 1 ) FV_main_range_5 ) ) 0 ) ( <= ( + ( - 4 ) FV_main_i_5 FV_main_range_5 ) 0 ) ) ( and ( <= FV_main_i_5 0 ) ( <= ( + 5 FV_main_i_5 ( * ( - 1 ) FV_main_range_5 ) ) 0 ) ( <= ( + 5 ( * ( - 1 ) FV_main_i_5 ) ( * ( - 1 ) FV_main_range_5 ) ) 0 ) ) ( and ( <= ( + 5 FV_main_i_5 ( * ( - 1 ) FV_main_range_5 ) ) 0 ) ( <= ( + 5 ( * ( - 1 ) FV_main_i_5 ) ( * ( - 1 ) FV_main_range_5 ) ) 0 ) ( <= ( + 2 ( * ( - 1 ) FV_main_i_5 ) ) 0 ) ) ) ))
(check-sat)
(exit)
